NAME: random-96-20783
TYPE: TSP
COMMENT: size=96 seed=20783
DIMENSION: 194
EDGE_WEIGHT_TYPE: EUC_2D
NODE_COORD_SECTION
+0 881 716
-0 881 716
+1 606 126
-1 833 598
+2 10 172
-2 930 830
+3 193 340
-3 4 673
+4 685 934
-4 424 513
+5 877 696
-5 867 892
+6 985 242
-6 100 944
+7 613 221
-7 358 278
+8 158 119
-8 71 452
+9 801 827
-9 745 819
+10 463 436
-10 426 656
+11 375 365
-11 355 511
+12 353 888
-12 73 383
+13 537 841
-13 542 50
+14 275 683
-14 278 123
+15 79 683
-15 557 182
+16 448 797
-16 434 869
+17 565 335
-17 652 122
+18 779 2
-18 472 518
+19 597 808
-19 353 298
+20 57 167
-20 644 7
+21 343 984
-21 115 160
+22 296 185
-22 842 507
+23 550 57
-23 421 624
+24 720 488
-24 695 201
+25 881 923
-25 50 542
+26 753 954
-26 219 9
+27 973 559
-27 662 376
+28 660 761
-28 263 834
+29 146 30
-29 53 226
+30 103 349
-30 988 594
+31 259 400
-31 155 48
+32 625 693
-32 788 298
+33 978 596
-33 915 317
+34 443 794
-34 52 752
+35 162 841
-35 828 518
+36 236 305
-36 411 877
+37 672 354
-37 55 556
+38 892 80
-38 284 143
+39 736 935
-39 22 228
+40 259 251
-40 702 982
+41 271 469
-41 899 555
+42 501 153
-42 236 820
+43 224 464
-43 880 946
+44 77 368
-44 237 587
+45 647 111
-45 612 823
+46 80 424
-46 787 125
+47 703 383
-47 34 739
+48 886 268
-48 299 40
+49 402 563
-49 547 83
+50 659 314
-50 289 823
+51 759 381
-51 610 762
+52 424 63
-52 704 902
+53 160 28
-53 291 382
+54 937 290
-54 358 163
+55 447 874
-55 122 570
+56 492 570
-56 570 948
+57 239 333
-57 11 921
+58 914 348
-58 892 820
+59 768 702
-59 152 815
+60 400 979
-60 213 890
+61 946 501
-61 0 340
+62 326 750
-62 88 908
+63 80 599
-63 182 160
+64 901 205
-64 318 161
+65 826 544
-65 692 334
+66 341 261
-66 14 194
+67 523 975
-67 375 351
+68 606 483
-68 517 210
+69 569 955
-69 637 442
+70 151 551
-70 840 253
+71 48 31
-71 439 617
+72 944 945
-72 542 141
+73 795 621
-73 463 817
+74 939 549
-74 960 309
+75 409 136
-75 932 470
+76 269 148
-76 811 780
+77 560 454
-77 709 841
+78 514 668
-78 777 608
+79 647 793
-79 832 696
+80 683 987
-80 513 904
+81 396 998
-81 313 617
+82 24 166
-82 974 541
+83 995 343
-83 484 780
+84 694 658
-84 897 282
+85 73 652
-85 158 644
+86 368 156
-86 622 325
+87 151 888
-87 170 894
+88 222 91
-88 388 419
+89 409 240
-89 881 90
+90 431 296
-90 405 608
+91 627 636
-91 874 460
+92 116 869
-92 678 912
+93 977 129
-93 234 673
+94 528 312
-94 904 922
+95 130 823
-95 928 811
+96 471 937
-96 93 929
PRECEDENCE_SECTION
+0 -0
+1 -1
+2 -2
+3 -3
+4 -4
+5 -5
+6 -6
+7 -7
+8 -8
+9 -9
+10 -10
+11 -11
+12 -12
+13 -13
+14 -14
+15 -15
+16 -16
+17 -17
+18 -18
+19 -19
+20 -20
+21 -21
+22 -22
+23 -23
+24 -24
+25 -25
+26 -26
+27 -27
+28 -28
+29 -29
+30 -30
+31 -31
+32 -32
+33 -33
+34 -34
+35 -35
+36 -36
+37 -37
+38 -38
+39 -39
+40 -40
+41 -41
+42 -42
+43 -43
+44 -44
+45 -45
+46 -46
+47 -47
+48 -48
+49 -49
+50 -50
+51 -51
+52 -52
+53 -53
+54 -54
+55 -55
+56 -56
+57 -57
+58 -58
+59 -59
+60 -60
+61 -61
+62 -62
+63 -63
+64 -64
+65 -65
+66 -66
+67 -67
+68 -68
+69 -69
+70 -70
+71 -71
+72 -72
+73 -73
+74 -74
+75 -75
+76 -76
+77 -77
+78 -78
+79 -79
+80 -80
+81 -81
+82 -82
+83 -83
+84 -84
+85 -85
+86 -86
+87 -87
+88 -88
+89 -89
+90 -90
+91 -91
+92 -92
+93 -93
+94 -94
+95 -95
+96 -96
EOF
